qe/outputs/qe/cbrdelay_obs_newl/T=6,eliminate=[I_0,I_1,I_2,I_3,I_4,I_5,C,B,lhs=L_5],pl=2.smt2
; benchmark generated from python API
(set-info :status unknown)
(declare-fun S_1 () Real)
(declare-fun A_1 () Real)
(declare-fun L_1 () Real)
(declare-fun L_5 () Real)
(declare-fun A_5 () Real)
(declare-fun S_5 () Real)
(declare-fun L_0 () Real)
(declare-fun S_0 () Real)
(declare-fun A_0 () Real)
(declare-fun S_4 () Real)
(declare-fun L_4 () Real)
(declare-fun A_4 () Real)
(declare-fun L_2 () Real)
(declare-fun A_2 () Real)
(declare-fun S_3 () Real)
(declare-fun S_2 () Real)
(declare-fun L_3 () Real)
(declare-fun A_3 () Real)
(assert
 (let (($x39 (>= L_0 0.0)))
 (let ((?x1691 (* 4.0 L_5)))
 (let ((?x1876 (* (- 3.0) S_0)))
 (let ((?x1679 (* (- 4.0) A_5)))
 (let ((?x419 (* (- 1.0) S_4)))
 (let ((?x1299 (* 4.0 A_1)))
 (let ((?x1298 (* (- 4.0) L_1)))
 (let ((?x5810 (* (- 4.0) L_4)))
 (let ((?x5261 (* 4.0 A_4)))
 (let (($x63500 (<= (+ ?x5261 ?x5810 ?x1298 ?x1299 ?x419 ?x1679 ?x1876 ?x1691) 0.0)))
 (let ((?x14297 (* (/ 5.0 3.0) L_5)))
 (let ((?x1302 (* (- 1.0) S_0)))
 (let ((?x14308 (* (- (/ 5.0 3.0)) A_5)))
 (let ((?x14299 (* (- (/ 5.0 3.0)) L_2)))
 (let ((?x14310 (* (/ 5.0 3.0) A_2)))
 (let (($x45137 (<= (+ S_4 ?x14310 ?x14299 ?x14308 ?x1302 ?x14297) 0.0)))
 (let (($x96 (= L_5 L_4)))
 (let ((?x3788 (* 3.0 L_5)))
 (let ((?x5343 (* (- 2.0) S_0)))
 (let ((?x412 (* (- 1.0) S_3)))
 (let ((?x4209 (* (- 3.0) A_5)))
 (let ((?x1287 (* 3.0 A_1)))
 (let ((?x1286 (* (- 3.0) L_1)))
 (let ((?x4441 (* (- 3.0) L_4)))
 (let ((?x1751 (* 3.0 A_4)))
 (let (($x63473 (<= (+ ?x1751 ?x4441 ?x1286 ?x1287 ?x4209 ?x412 ?x5343 ?x3788) 0.0)))
 (let ((?x1688 (* 2.0 L_5)))
 (let ((?x405 (* (- 1.0) S_2)))
 (let ((?x1699 (* (- 2.0) A_5)))
 (let ((?x1250 (* 2.0 A_1)))
 (let ((?x1204 (* (- 2.0) L_1)))
 (let ((?x5526 (* (- 2.0) L_4)))
 (let ((?x5439 (* 2.0 A_4)))
 (let (($x63472 (<= (+ ?x5439 ?x5526 ?x1204 ?x1250 ?x1699 ?x405 ?x1302 ?x1688) 0.0)))
 (let ((?x3237 (* (/ 4.0 3.0) L_5)))
 (let ((?x2904 (* (- (/ 4.0 3.0)) A_5)))
 (let ((?x3209 (* (- (/ 4.0 3.0)) L_2)))
 (let ((?x4343 (* (/ 4.0 3.0) A_2)))
 (let (($x31567 (<= (+ ?x4343 ?x3209 ?x2904 S_3 ?x1302 ?x3237) 0.0)))
 (let (($x101235 (<= (+ A_2 (* (- 1.0) L_2) (* (- 1.0) A_5) L_5) (- 15.0))))
 (let (($x4362 (<= (+ A_2 (* (- 1.0) L_2) (* (- 1.0) A_5) S_2 ?x1302 L_5) 0.0)))
 (let (($x1724 (<= (+ S_5 (* 2.0 A_2) (* (- 2.0) L_2) ?x1699 ?x1302 ?x1688) 0.0)))
 (let ((?x5275 (* (/ 3.0 2.0) L_5)))
 (let ((?x3466 (* (- (/ 1.0 2.0)) S_0)))
 (let ((?x4501 (* (- (/ 3.0 2.0)) A_5)))
 (let ((?x38654 (* (- (/ 3.0 2.0)) L_2)))
 (let ((?x51061 (* (/ 3.0 2.0) A_2)))
 (let ((?x15169 (* (- (/ 3.0 2.0)) L_4)))
 (let ((?x15168 (* (/ 3.0 2.0) A_4)))
 (let (($x54647 (<= (+ ?x15168 ?x15169 ?x51061 ?x38654 ?x4501 ?x412 ?x3466 ?x5275) 0.0)))
 (let ((?x1332 (* (- 1.0) A_0)))
 (let ((?x1127 (* (- 2.0) L_2)))
 (let ((?x1168 (* 2.0 A_2)))
 (let (($x46029 (<= (+ ?x5439 ?x5526 ?x1168 ?x1127 ?x1699 ?x1332 ?x412 ?x1688 L_0) 0.0)))
 (let ((?x1748 (* 3.0 L_0)))
 (let ((?x4396 (* 3.0 S_2)))
 (let ((?x1747 (* (- 3.0) A_0)))
 (let (($x4211 (<= (+ ?x1168 ?x1127 ?x1699 ?x1747 ?x4396 ?x1688 ?x1748) 0.0)))
 (let ((?x399 (* (- 1.0) S_1)))
 (let ((?x443 (* (- 1.0) A_5)))
 (let ((?x274 (* (- 1.0) L_1)))
 (let ((?x325 (* (- 1.0) L_4)))
 (let (($x35933 (<= (+ A_4 ?x325 ?x274 A_1 ?x443 ?x399 L_5) 0.0)))
 (let (($x4283 (<= (+ ?x1168 ?x1127 ?x1699 ?x4396 (* (- 3.0) S_1) ?x1688) 0.0)))
 (let (($x58765 (<= (+ ?x5439 ?x5526 ?x1168 ?x1127 ?x1699 ?x412 ?x399 ?x1688) 0.0)))
 (let (($x54660 (<= (+ ?x5439 ?x5526 ?x419 ?x1168 ?x1127 ?x1699 ?x1302 ?x1688) 0.0)))
 (let (($x35930 (<= (+ A_4 ?x325 ?x1204 ?x1250 (* (- 1.0) A_2) L_2 ?x443 ?x1302 L_5) 0.0)))
 (let ((?x291 (* (- 1.0) L_2)))
 (let ((?x909 (+ L_1 ?x291)))
 (let (($x531 (<= 0.0 ?x909)))
 (let (($x35974 (<= (+ A_4 ?x325 ?x274 A_1 ?x443 ?x1332 L_5 L_0) 0.0)))
 (let ((?x5409 (* (- 2.0) S_1)))
 (let ((?x1295 (* (- 3.0) L_2)))
 (let ((?x1294 (* 3.0 A_2)))
 (let (($x51370 (<= (+ ?x1751 ?x4441 ?x419 ?x1294 ?x1295 ?x4209 ?x5409 ?x3788) 0.0)))
 (let ((?x4664 (* 2.0 L_0)))
 (let ((?x5436 (* (- 2.0) A_0)))
 (let (($x45669 (<= (+ ?x1751 ?x4441 ?x419 ?x1294 ?x1295 ?x4209 ?x5436 ?x3788 ?x4664) 0.0)))
 (let ((?x1314 (* (- 4.0) L_2)))
 (let ((?x1313 (* 4.0 A_2)))
 (let ((?x1694 (* 3.0 S_4)))
 (let (($x45168 (<= (+ ?x1694 ?x1313 ?x1314 ?x1679 ?x1747 ?x1691 ?x1748) 0.0)))
 (let ((?x342 (* (- 1.0) L_5)))
 (let ((?x434 (* (- 1.0) A_2)))
 (let ((?x440 (* (- 1.0) A_4)))
 (let (($x105988 (<= 0.0 (+ ?x440 L_4 ?x274 A_1 ?x434 L_2 A_5 ?x342))))
 (let ((?x1713 (* 5.0 L_5)))
 (let ((?x1711 (* (- 5.0) A_5)))
 (let ((?x1710 (* (- 5.0) L_2)))
 (let ((?x1709 (* 5.0 A_2)))
 (let ((?x1701 (* 3.0 S_5)))
 (let (($x1750 (<= (+ ?x1701 ?x1709 ?x1710 ?x1711 ?x1747 ?x1713 ?x1748) 0.0)))
 (let ((?x3540 (* 2.0 S_2)))
 (let ((?x5345 (* (/ 3.0 2.0) A_1)))
 (let ((?x5348 (* (- (/ 3.0 2.0)) L_1)))
 (let (($x14135 (<= (+ ?x5348 ?x5345 ?x4501 ?x3540 ?x5343 ?x5275) 0.0)))
 (let (($x29802 (<= (+ ?x1694 ?x1313 ?x1314 ?x1679 (* (- 3.0) S_1) ?x1691) 0.0)))
 (let (($x31564 (<= (+ ?x1294 ?x1295 ?x4209 (* 3.0 S_3) (* (- 3.0) S_1) ?x3788) 0.0)))
 (let (($x35956 (<= (+ A_4 ?x325 A_2 ?x291 ?x443 ?x405 L_5) 0.0)))
 (let (($x1715 (<= (+ ?x1701 ?x1709 ?x1710 ?x1711 (* (- 3.0) S_1) ?x1713) 0.0)))
 (let (($x15509 (<= (+ ?x274 A_1 ?x443 (* 2.0 S_1) ?x5343 L_5) 0.0)))
 (let ((?x4379 (* (/ 2.0 3.0) L_5)))
 (let ((?x4378 (* (- (/ 2.0 3.0)) A_5)))
 (let ((?x4377 (* (- (/ 2.0 3.0)) L_2)))
 (let ((?x4375 (* (/ 2.0 3.0) A_2)))
 (let (($x4381 (<= (+ ?x4375 ?x4377 ?x4378 S_1 ?x1302 ?x4379) 0.0)))
 (let ((?x5515 (* (/ 1.0 4.0) L_5)))
 (let ((?x5452 (* (- (/ 1.0 4.0)) A_5)))
 (let ((?x5464 (* (/ 1.0 4.0) A_1)))
 (let ((?x5520 (* (- (/ 1.0 4.0)) L_1)))
 (let (($x111296 (<= (+ ?x5520 ?x5464 ?x5452 ?x5515) (- 5.0))))
 (let ((?x22636 (* (/ 5.0 2.0) L_5)))
 (let ((?x21572 (* (- (/ 5.0 2.0)) A_5)))
 (let ((?x5378 (* 2.0 S_4)))
 (let ((?x5384 (* (/ 5.0 2.0) A_1)))
 (let ((?x5398 (* (- (/ 5.0 2.0)) L_1)))
 (let (($x49028 (<= (+ ?x5398 ?x5384 ?x5378 ?x21572 ?x5343 ?x22636) 0.0)))
 (let (($x32520 (<= (+ (* 2.0 S_5) ?x1286 ?x1287 ?x4209 ?x5343 ?x3788) 0.0)))
 (let (($x4395 (<= (+ A_2 ?x291 ?x443 ?x1747 (* 3.0 S_1) L_5 ?x1748) 0.0)))
 (let (($x102287 (<= 0.0 (+ A_4 ?x325 L_1 (* (- 1.0) A_1) A_2 ?x291 ?x443 L_5))))
 (let ((?x1017 (* (- 2.0) L_5)))
 (let ((?x1613 (* 2.0 A_5)))
 (let ((?x1245 (* 2.0 L_2)))
 (let ((?x1200 (* (- 2.0) A_2)))
 (let ((?x5419 (* 2.0 L_4)))
 (let ((?x5418 (* (- 2.0) A_4)))
 (let (($x66 (= L_2 L_1)))
 (let (($x271913 (or $x66 (<= (+ ?x5418 ?x5419 ?x1200 ?x1245 ?x1613 S_2 S_0 ?x1017) 0.0) $x102287)))
 (let (($x31572 (<= (+ ?x1294 ?x1295 ?x4209 ?x1747 (* 3.0 S_3) ?x3788 ?x1748) 0.0)))
 (let ((?x4677 (* 4.0 L_0)))
 (let ((?x5591 (* 4.0 S_2)))
 (let ((?x5258 (* (- 4.0) A_0)))
 (let ((?x5507 (* (- 4.0) S_1)))
 (let ((?x2100 (* 5.0 A_1)))
 (let ((?x2529 (* (- 5.0) L_1)))
 (let ((?x5861 (* 4.0 S_5)))
 (let (($x122145 (or $x96 $x111296 (<= (+ A_4 ?x325 ?x274 A_1 ?x443 ?x405 L_5) (- 5.0)))))
 (let ((?x48276 (+ ?x440 L_4 (* (- (/ 4.0 3.0)) A_2) (* (/ 4.0 3.0) L_2) (* (/ 4.0 3.0) A_5) S_0 (* (- (/ 4.0 3.0)) L_5))))
 (let (($x41536 (<= (+ ?x1204 ?x1250 ?x1699 (* 2.0 S_3) ?x5343 ?x1688) 0.0)))
 (let ((?x1695 (* 3.0 S_1)))
 (let ((?x1148 (* (- 2.0) A_1)))
 (let ((?x1207 (* 2.0 L_1)))
 (let (($x56 (= L_1 L_0)))
 (let ((?x5484 (* (/ 1.0 2.0) L_5)))
 (let ((?x5468 (* (- (/ 1.0 2.0)) A_5)))
 (let ((?x5404 (* (/ 1.0 2.0) A_1)))
 (let ((?x5403 (* (- (/ 1.0 2.0)) L_1)))
 (let (($x265766 (or $x96 (<= (+ ?x5403 ?x5404 ?x5468 S_3 ?x405 ?x5484) 0.0) (<= 0.0 (+ ?x440 L_4 (* (/ 3.0 2.0) S_3) (* (- (/ 1.0 2.0)) S_2))))))
 (let (($x98751 (not (<= 0.0 (+ L_4 ?x342)))))
 (let (($x43535 (<= (+ ?x440 ?x434 L_2 A_5 (* (/ 1.0 2.0) S_2) (* (/ 1.0 2.0) S_0)) 0.0)))
 (let ((?x13887 (* 2.0 S_1)))
 (let ((?x432 (* (- 1.0) A_1)))
 (let (($x121035 (or $x56 (<= (+ ?x440 L_4 L_1 ?x432 A_5 ?x412 ?x13887 ?x342) 0.0))))
 (let ((?x14127 (* (/ 3.0 4.0) L_5)))
 (let ((?x14702 (* (- (/ 3.0 4.0)) A_5)))
 (let ((?x14201 (* (/ 3.0 4.0) A_1)))
 (let ((?x14705 (* (- (/ 3.0 4.0)) L_1)))
 (let (($x276621 (or $x96 $x35933 (<= (+ ?x1286 ?x1287 ?x4209 (* 4.0 S_3) ?x5507 ?x3788) 0.0))))
 (let (($x756 (not $x56)))
 (let (($x269258 (or $x96 $x756 (<= (+ A_1 ?x443 ?x5436 ?x3540 L_5 L_0) 0.0) $x35974)))
 (let ((?x1301 (* 4.0 L_2)))
 (let ((?x1300 (* (- 4.0) A_2)))
 (let ((?x29511 (+ ?x1286 ?x1287 ?x1300 ?x1301 A_5 ?x342)))
 (let (($x106076 (<= 0.0 ?x29511)))
 (let (($x583 (<= 0.0 (+ ?x274 L_0))))
 (let ((?x6029 (* (/ 1.0 3.0) S_3)))
 (let ((?x21621 (* (/ 2.0 3.0) A_1)))
 (let ((?x25880 (* (- (/ 2.0 3.0)) L_1)))
 (let ((?x13533 (* (- (/ 2.0 3.0)) L_4)))
 (let ((?x21328 (* (/ 2.0 3.0) A_4)))
 (let (($x270584 (or $x96 (<= (+ ?x21328 ?x13533 ?x25880 ?x21621 ?x4378 ?x6029 ?x405 ?x4379) 0.0) (not (<= 0.0 (+ ?x5418 ?x5419 (* 3.0 S_3) ?x405))))))
 (let (($x269095 (or $x66 (<= (+ ?x440 L_4 ?x419 ?x434 L_2 A_5 ?x3540 ?x342) 0.0))))
 (let (($x269360 (or $x531 (<= (+ ?x440 L_4 ?x274 A_1 ?x1200 ?x1245 A_5 S_2 ?x342) 0.0))))
 (let ((?x15656 (* (- (/ 1.0 2.0)) L_5)))
 (let ((?x3461 (* (/ 3.0 2.0) S_2)))
 (let ((?x14258 (* (/ 1.0 2.0) A_5)))
 (let ((?x5385 (* (- (/ 1.0 2.0)) A_1)))
 (let ((?x5371 (* (/ 1.0 2.0) L_1)))
 (let (($x50422 (<= (+ (* (- (/ 1.0 2.0)) A_4) (* (/ 1.0 2.0) L_4) ?x5371 ?x5385 ?x419 ?x14258 ?x3461 ?x15656) 0.0)))
 (let ((?x4526 (* (- (/ 3.0 2.0)) L_5)))
 (let ((?x23135 (* (/ 1.0 2.0) S_3)))
 (let ((?x4502 (* (/ 3.0 2.0) A_5)))
 (let ((?x54810 (+ (* (- (/ 3.0 2.0)) A_4) (* (/ 3.0 2.0) L_4) (* (- (/ 3.0 2.0)) A_2) (* (/ 3.0 2.0) L_2) ?x4502 ?x23135 S_0 ?x4526)))
 (let (($x29523 (<= (+ ?x1701 (* 3.0 L_1) (* (- 3.0) A_1) ?x1313 ?x1314 ?x1679 ?x1691) 0.0)))
 (let (($x122160 (or $x66 (<= (+ S_5 ?x5418 ?x5419 ?x434 L_2 A_5 S_0 ?x342) 0.0) $x102287)))
 (let ((?x14265 (+ (* (- (/ 2.0 3.0)) A_2) (* (/ 2.0 3.0) L_2) (* (/ 2.0 3.0) A_5) ?x412 S_0 (* (- (/ 2.0 3.0)) L_5))))
 (let (($x266387 (or $x66 (<= ?x14265 0.0) (<= (+ ?x1286 ?x1287 ?x434 L_2 A_5 (* (- 3.0) S_3) ?x342) 0.0))))
 (let ((?x4303 (* (- 3.0) L_5)))
 (let ((?x1719 (* 3.0 S_0)))
 (let ((?x4281 (* 3.0 A_5)))
 (let ((?x1289 (* 3.0 L_2)))
 (let ((?x1288 (* (- 3.0) A_2)))
 (let ((?x1690 (* (- 3.0) S_4)))
 (let (($x132406 (or $x66 (<= (+ ?x1690 ?x1288 ?x1289 ?x4281 ?x1719 ?x4303) 0.0) (<= (+ ?x1286 ?x1287 ?x1690 ?x1200 ?x1245 ?x1613 ?x1017) 0.0))))
 (let (($x120959 (or $x96 $x111296 (<= (+ A_4 ?x325 ?x274 A_1 ?x419 ?x443 L_5) (- 15.0)))))
 (let (($x268480 (or $x66 $x102287 (<= (+ ?x440 L_4 ?x434 L_2 A_5 S_0 ?x342) (- 5.0)))))
 (let (($x124945 (or $x96 $x35974 (<= (+ ?x1286 ?x1287 ?x4209 ?x5258 (* 4.0 S_3) ?x3788 ?x4677) 0.0))))
 (let (($x270678 (or $x96 $x111296 (<= (+ A_4 ?x325 ?x274 A_1 ?x443 ?x412 L_5) (- 10.0)))))
 (let (($x268297 (or $x96 $x756 $x111296 (<= (+ A_4 ?x325 A_1 ?x443 ?x412 L_5 (* (- 1.0) L_0)) (- 10.0)))))
 (let (($x49056 (<= (+ ?x1204 ?x1250 (* 4.0 S_4) ?x1699 (* (- 4.0) S_3) ?x1688) 0.0)))
 (let (($x5708 (<= (+ ?x1207 ?x1148 ?x1613 (* (- 4.0) S_3) (* 4.0 S_0) ?x1017) 0.0)))
 (let ((?x5390 (* 2.0 S_0)))
 (let ((?x4208 (* (- 2.0) S_4)))
 (let ((?x5352 (* (- (/ 3.0 2.0)) A_1)))
 (let ((?x5386 (* (/ 3.0 2.0) L_1)))
 (let ((?x5939 (* 6.0 L_2)))
 (let ((?x6772 (* (- 6.0) A_2)))
 (let ((?x6157 (* 6.0 A_1)))
 (let ((?x6438 (* (- 6.0) L_1)))
 (let ((?x5444 (+ (* (/ 1.0 4.0) L_1) (* (- (/ 1.0 4.0)) A_1) (* (/ 1.0 4.0) A_5) ?x405 S_0 (* (- (/ 1.0 4.0)) L_5))))
 (let (($x29486 (<= (+ (* 3.0 L_1) (* (- 3.0) A_1) A_2 ?x291 ?x443 ?x4396 L_5) 0.0)))
 (let ((?x1686 (* 3.0 S_3)))
 (let ((?x1293 (* (- 3.0) A_1)))
 (let ((?x1292 (* 3.0 L_1)))
 (let (($x129503 (or $x56 (<= (+ ?x325 L_1 ?x432 A_5 (* (- 2.0) S_3) ?x5390) 0.0) $x98751)))
 (let (($x32972 (<= (+ ?x440 L_1 ?x432 (* (- (/ 1.0 2.0)) S_4) A_5 (* (/ 3.0 2.0) S_1)) 0.0)))
 (let (($x272373 (or $x96 (<= (+ ?x1168 ?x1127 ?x1699 ?x1686 (* (- 3.0) S_2) ?x1688) 0.0) $x35956)))
 (let (($x6494 (<= (+ S_5 ?x2529 ?x2100 (* (- 5.0) A_2) (* 5.0 L_2) ?x399) 0.0)))
 (let (($x265578 (or $x96 (<= (+ (* 2.0 S_5) ?x274 A_1 ?x4208 ?x443 L_5) 0.0))))
 (let (($x265225 (or $x531 (<= (+ ?x440 L_4 ?x1204 ?x1250 ?x1288 ?x1289 A_5 S_3 ?x342) 0.0))))
 (let (($x64524 (<= (+ (* 2.0 S_5) ?x440 L_4 ?x274 A_1 ?x443 ?x412 L_5) 0.0)))
 (let (($x102782 (<= 0.0 (+ L_1 ?x432 S_2))))
 (let (($x124314 (or $x66 (<= (+ ?x434 L_2 A_5 (* (- 3.0) S_2) ?x1719 ?x342) 0.0) $x102782)))
 (let (($x58197 (<= (+ (* 2.0 S_5) ?x440 L_4 ?x419 A_2 ?x291 ?x443 L_5) 0.0)))
 (let (($x127205 (or $x96 $x756 (<= (+ ?x5404 S_4 ?x5468 ?x412 ?x5484 (* (- (/ 1.0 2.0)) L_0)) 0.0))))
 (let ((?x308 (* (- 1.0) L_3)))
 (let ((?x902 (+ L_2 ?x308)))
 (let (($x90689 (<= 0.0 ?x902)))
 (let (($x28895 (<= (+ ?x1204 ?x1250 A_5 (* (- 1.0) A_3) (* (- 2.0) S_3) L_3 ?x342) 0.0)))
 (let ((?x2140 (* 2.0 L_3)))
 (let ((?x5379 (* (- 2.0) S_3)))
 (let ((?x2151 (* (- 2.0) A_3)))
 (let (($x18056 (<= (+ ?x1699 (* 2.0 A_3) ?x3540 ?x5409 (* (- 2.0) L_3) ?x1688) 0.0)))
 (let (($x18096 (<= (+ ?x1699 (* 2.0 A_3) ?x5436 ?x3540 (* (- 2.0) L_3) ?x1688 ?x4664) 0.0)))
 (let (($x140473 (or $x96 $x756 (<= (+ S_5 ?x14201 ?x14702 ?x412 ?x14127 (* (- (/ 3.0 4.0)) L_0)) 0.0))))
 (let (($x7076 (<= (+ ?x2529 ?x2100 S_4 (* (- 5.0) A_2) (* 5.0 L_2) ?x1302) 0.0)))
 (let (($x274272 (or (<= (+ S_5 ?x440 L_4 ?x274 A_1 ?x412) 0.0) (<= (+ S_5 ?x440 L_4 (* (- (/ 1.0 2.0)) S_3) (* (/ 1.0 2.0) S_0)) 0.0))))
 (let (($x133641 (or (<= (+ (* (/ 2.0 5.0) S_5) ?x412 (* (/ 3.0 5.0) S_0)) 0.0) (<= (+ S_5 ?x1286 ?x1287 (* (- 4.0) S_3)) 0.0))))
 (let (($x127148 (or (<= (+ ?x274 A_1 ?x412) (- 5.0)) (not (<= (- 5.0) (+ L_1 ?x432 S_0))))))
 (let (($x279037 (or (<= (+ S_5 ?x440 L_4 ?x5403 ?x5404 (* (- (/ 1.0 2.0)) S_4)) 0.0) (<= (+ ?x1701 (* (- 3.0) A_4) (* 3.0 L_4) ?x419 S_0) 0.0))))
 (let (($x139981 (or $x56 $x96 (<= (+ A_4 ?x325 L_1 ?x432 ?x1168 ?x1127 ?x443 ?x412 L_5) 0.0) $x106076)))
 (let (($x15356 (<= (+ L_1 ?x432 A_5 (* (- 4.0) S_3) (* 4.0 S_1) ?x342) 0.0)))
 (let ((?x3697 (+ (* (- (/ 1.0 3.0)) A_2) (* (/ 1.0 3.0) L_2) (* (/ 1.0 3.0) A_5) ?x412 S_1 (* (- (/ 1.0 3.0)) L_5))))
 (let (($x23181 (<= (+ ?x1699 (* 2.0 A_3) S_3 ?x1302 (* (- 2.0) L_3) ?x1688) 0.0)))
 (let ((?x1752 (* (- 3.0) L_3)))
 (let ((?x5564 (* 2.0 S_3)))
 (let ((?x1755 (* 3.0 A_3)))
 (let ((?x2141 (* (- 5.0) L_3)))
 (let ((?x2123 (* 5.0 A_3)))
 (let ((?x5577 (* 2.0 S_5)))
 (let (($x29256 (<= (+ S_5 L_1 ?x432 ?x1699 (* 2.0 A_3) (* (- 2.0) L_3) ?x1688) 0.0)))
 (let (($x143824 (or (<= (+ A_5 (* (- 1.0) A_3) ?x5379 ?x13887 L_3 ?x342) 0.0) $x90689)))
 (let (($x146241 (or $x56 $x96 (<= (+ A_4 ?x325 ?x1207 ?x1148 ?x419 ?x1294 ?x1295 ?x443 L_5) 0.0) $x106076)))
 (let (($x22078 (<= (+ ?x419 ?x4502 (* (- (/ 3.0 2.0)) A_3) S_0 (* (/ 3.0 2.0) L_3) ?x4526) 0.0)))
 (let (($x76 (= L_3 L_2)))
 (let (($x144375 (or $x76 $x22078 (<= (+ ?x274 A_1 ?x419 A_5 (* (- 1.0) A_3) L_3 ?x342) 0.0))))
 (let (($x125980 (or $x96 $x756 (<= (+ S_5 A_1 ?x443 ?x405 L_5 (* (- 1.0) L_0)) 0.0))))
 (let (($x4930 (<= (+ S_5 ?x2529 ?x2100 (* (- 5.0) A_2) (* 5.0 L_2) ?x1332 L_0) 0.0)))
 (let (($x128401 (or (<= (+ (* (/ 1.0 2.0) S_4) ?x412 (* (/ 1.0 2.0) S_0)) 0.0) (<= (+ ?x1204 ?x1250 S_4 (* (- 3.0) S_3)) 0.0))))
 (let (($x109668 (<= (- 5.0) (+ L_1 ?x432 S_0))))
 (let (($x139927 (or $x96 (<= (+ ?x1701 ?x1313 ?x1314 ?x1679 (* (- 3.0) S_2) ?x1691) 0.0) $x35956)))
 (let (($x7697 (<= (+ S_5 ?x1286 ?x1287 (* (- 3.0) A_3) ?x1302 (* 3.0 L_3)) 0.0)))
 (let (($x7702 (<= (+ ?x5577 ?x2529 ?x2100 (* (- 5.0) A_3) ?x5409 (* 5.0 L_3)) 0.0)))
 (let (($x126874 (or (<= (+ (* (/ 3.0 5.0) S_5) ?x419 (* (/ 2.0 5.0) S_0)) 0.0) (<= (+ S_5 ?x274 A_1 ?x4208) 0.0))))
 (let (($x135152 (or $x96 (<= (+ ?x1298 ?x1299 (* 4.0 S_4) ?x1679 ?x5258 ?x1691 ?x4677) 0.0))))
 (let (($x5381 (<= (+ ?x1207 ?x1148 (* 2.0 A_3) ?x5379 ?x5390 (* (- 2.0) L_3)) 0.0)))
 (let (($x137011 (or $x96 $x101235 (<= (+ A_4 ?x325 ?x419 A_2 ?x291 ?x443 L_5) (- 10.0)))))
 (let (($x130095 (or $x96 $x101235 (<= (+ A_4 ?x325 A_2 ?x291 ?x443 ?x412 L_5) (- 5.0)))))
 (let (($x272618 (or (<= (+ ?x419 A_5 (* (- 1.0) A_3) S_1 L_3 ?x342) 0.0) $x90689)))
 (let (($x13524 (<= (+ ?x5348 ?x5345 (* (- (/ 3.0 2.0)) A_3) S_2 ?x1302 (* (/ 3.0 2.0) L_3)) 0.0)))
 (let (($x2759 (<= (+ ?x1200 ?x1245 (* 2.0 A_3) ?x412 S_0 (* (- 2.0) L_3)) 0.0)))
 (let (($x278339 (or $x66 $x2759 (<= (+ ?x274 A_1 ?x434 L_2 A_3 ?x412 ?x308) 0.0))))
 (let (($x25666 (<= (+ ?x274 A_1 ?x419 ?x1200 ?x1245 (* 2.0 A_3) (* (- 2.0) L_3)) 0.0)))
 (let (($x33791 (<= (+ ?x1286 ?x1287 (* (- 3.0) A_3) ?x5436 ?x5564 (* 3.0 L_3) ?x4664) 0.0)))
 (let (($x17029 (<= (+ ?x5371 ?x5385 ?x419 (* (/ 1.0 2.0) A_3) S_2 (* (- (/ 1.0 2.0)) L_3)) 0.0)))
 (let (($x7726 (<= (+ ?x5577 ?x1286 ?x1287 (* (- 3.0) A_3) ?x5379 (* 3.0 L_3)) 0.0)))
 (let (($x5402 (<= (+ ?x5371 ?x5385 (* (/ 1.0 2.0) A_3) ?x405 S_0 (* (- (/ 1.0 2.0)) L_3)) 0.0)))
 (let (($x2115 (<= (+ S_5 ?x1313 ?x1314 (* (- 4.0) A_3) ?x405 (* 4.0 L_3)) 0.0)))
 (let (($x38545 (<= (+ S_5 ?x1699 (* 2.0 A_3) ?x405 (* (- 2.0) L_3) ?x1688) 0.0)))
 (let (($x124506 (or (<= (+ ?x5403 ?x5404 ?x14258 (* (- 1.0) A_3) L_3 ?x15656) 0.0) $x90689)))
 (let (($x33786 (<= (+ ?x1286 ?x1287 (* (- 3.0) A_3) ?x5564 ?x5409 (* 3.0 L_3)) 0.0)))
 (let (($x106633 (<= 0.0 (+ (* (- (/ 1.0 3.0)) A_4) (* (/ 1.0 3.0) L_4) ?x1332 (* (/ 4.0 3.0) S_1) L_0))))
 (let (($x278595 (or $x96 (<= (+ ?x274 A_1 ?x443 ?x5258 (* 4.0 S_1) L_5 ?x4677) 0.0) $x106633)))
 (let (($x7739 (<= (+ ?x5577 ?x2529 ?x2100 (* (- 5.0) A_3) ?x5436 (* 5.0 L_3) ?x4664) 0.0)))
 (let (($x134995 (or $x76 (<= (+ L_1 ?x432 A_2 ?x291 (* (- 1.0) A_3) S_2 L_3) 0.0))))
 (let ((?x2158 (* 6.0 L_3)))
 (let ((?x2157 (* (- 6.0) A_3)))
 (let ((?x2129 (* (- 6.0) L_2)))
 (let ((?x2127 (* 6.0 A_2)))
 (let (($x26085 (<= (+ S_5 L_1 ?x432 ?x1313 ?x1314 (* (- 4.0) A_3) (* 4.0 L_3)) 0.0)))
 (let (($x2177 (<= (+ S_5 ?x1709 ?x1710 (* (- 5.0) A_3) ?x1332 (* 5.0 L_3) L_0) 0.0)))
 (let (($x2139 (<= (+ S_5 ?x1709 ?x1710 (* (- 5.0) A_3) ?x399 (* 5.0 L_3)) 0.0)))
 (let (($x24126 (<= (+ ?x1294 ?x1295 (* (- 3.0) A_3) S_3 ?x399 (* 3.0 L_3)) 0.0)))
 (let (($x277559 (or $x76 (<= (+ ?x274 A_1 (* (- 1.0) A_3) S_1 ?x1302 L_3) 0.0))))
 (let (($x129870 (or $x76 (<= (+ S_5 ?x274 A_1 ?x419 (* (- 1.0) A_3) L_3) 0.0))))
 (let (($x266181 (or $x76 (<= (+ ?x274 A_1 (* (- 1.0) A_3) S_3 ?x405 L_3) 0.0))))
 (let (($x131747 (or $x76 (<= (+ ?x274 A_1 (* (- 1.0) A_3) ?x5436 ?x13887 L_3 ?x4664) 0.0))))
 (let (($x2116 (<= (+ S_5 ?x1294 ?x1295 (* (- 3.0) A_3) ?x412 (* 3.0 L_3)) 0.0)))
 (let (($x125052 (or (<= (+ (* (- (/ 1.0 3.0)) S_4) (* (/ 1.0 3.0) S_0)) (- 5.0)) (<= (+ ?x274 A_1 ?x419) (- 10.0)))))
 (let (($x20512 (<= (+ ?x14258 (* (- (/ 1.0 2.0)) A_3) ?x405 S_0 (* (/ 1.0 2.0) L_3) ?x15656) 0.0)))
 (let (($x22166 (<= (+ ?x1294 ?x1295 (* (- 3.0) A_3) ?x1332 S_3 (* 3.0 L_3) L_0) 0.0)))
 (let (($x21386 (<= (+ ?x1313 ?x1314 (* (- 4.0) A_3) S_3 ?x1302 (* 4.0 L_3)) 0.0)))
 (let (($x18046 (<= (+ ?x4501 (* (/ 3.0 2.0) A_3) S_2 ?x1302 (* (- (/ 3.0 2.0)) L_3) ?x5275) 0.0)))
 (let (($x2827 (<= (+ ?x1294 ?x1295 (* (- 3.0) A_3) S_2 ?x1302 (* 3.0 L_3)) 0.0)))
 (let (($x135439 (or $x76 (<= (+ A_2 ?x291 (* (- 1.0) A_3) ?x1332 S_1 L_3 L_0) 0.0))))
 (let (($x1018 (not $x66)))
 (let (($x126403 (or $x56 $x1018 (<= (+ ?x432 (* (- (/ 1.0 2.0)) S_4) A_2 (* (/ 1.0 2.0) S_1)) 0.0))))
 (let (($x133554 (or $x76 $x756 (<= (+ A_1 (* (- 1.0) A_3) ?x1332 S_2 L_3) 0.0))))
 (let (($x18100 (<= (+ ?x1204 ?x1168 A_5 (* (- 3.0) A_3) (* 3.0 L_3) ?x342) 0.0)))
 (let (($x100380 (not $x90689)))
 (let (($x18078 (<= (+ ?x419 ?x14258 (* (- (/ 1.0 2.0)) A_3) S_2 (* (/ 1.0 2.0) L_3) ?x15656) 0.0)))
 (let (($x5350 (<= (+ ?x5386 ?x5352 ?x419 (* (/ 3.0 2.0) A_3) S_0 (* (- (/ 3.0 2.0)) L_3)) 0.0)))
 (let (($x134821 (or $x56 $x76 $x1018 (<= (+ ?x274 ?x432 ?x1168 (* (- 1.0) A_3) L_3) 0.0))))
 (let (($x125716 (or $x66 (<= 0.0 (+ L_1 ?x432 ?x1168 ?x291 (* (- 1.0) A_3))) $x100380)))
 (let (($x135703 (or $x66 $x756 (<= (+ A_1 ?x1200 ?x1245 A_3 ?x308 (* (- 1.0) L_0)) 0.0))))
 (let (($x2858 (<= (+ ?x419 ?x1200 ?x1245 (* 2.0 A_3) S_1 (* (- 2.0) L_3)) 0.0)))
 (let (($x120663 (or $x56 $x76 $x531 (= (+ L_1 ?x432 ?x1168 ?x1127 (* (- 1.0) A_3) L_3) 0.0))))
 (let (($x86 (= L_4 L_3)))
 (let (($x128 (>= S_1 S_0)))
 (let (($x131 (>= S_2 S_1)))
 (let (($x134 (>= S_3 S_2)))
 (let (($x137 (>= S_4 S_3)))
 (let (($x142 (>= A_1 A_0)))
 (let (($x144 (>= A_3 A_2)))
 (let (($x145 (>= A_4 A_3)))
 (and (<= (+ A_4 ?x325) S_5) (<= (+ A_1 ?x274) S_4) (not (<= (+ A_2 ?x291) S_4)) $x145 $x144 $x142 $x137 $x134 $x131 $x128 $x86 (or (not $x583) $x56) (or $x66 (<= (+ ?x274 A_1 ?x434 L_2) (- 5.0))) (or $x96 (<= (+ S_5 A_2 ?x291 ?x443 ?x412 L_5) 0.0)) $x120663 (or $x96 $x98751) (or $x100380 $x76) (or $x76 (<= (+ A_2 ?x291 (* (- 1.0) A_3) L_3) (- 5.0))) (or $x76 $x96 $x531 (= (+ ?x1200 ?x1245 ?x443 ?x1755 ?x1752 L_5) 0.0)) (or $x66 (<= (+ ?x419 ?x434 L_2 A_3 S_2 ?x308) 0.0)) (or $x66 (<= (+ ?x434 L_2 A_3 ?x412 S_1 ?x308) 0.0)) (or $x66 $x2858) (or $x56 (<= (+ L_1 ?x432 ?x419 A_2 ?x291 S_2) 0.0)) (or $x66 (<= (+ ?x1204 ?x1250 ?x1200 ?x1245 ?x1332 S_2 L_0) 0.0)) (or $x66 (<= (+ ?x1286 ?x1287 ?x1288 ?x1289 S_2 ?x1302) 0.0)) (or $x66 (not $x531)) $x135703 $x125716 (or $x56 (<= (+ ?x1207 ?x1148 ?x1168 ?x1127 ?x412 S_0) 0.0)) (or $x56 (<= (+ ?x1292 ?x1293 ?x419 ?x1294 ?x1295 S_0) 0.0)) (or $x96 $x531 (<= (+ ?x1200 ?x291 ?x443 ?x1755 L_5) 0.0) $x100380) $x134821 (or $x56 $x5350) (or $x96 (<= (+ ?x1701 ?x1690 ?x1168 ?x1127 ?x1699 ?x1688) 0.0)) (or $x531 (<= (+ ?x1690 ?x1200 ?x1245 ?x1613 ?x1695 ?x1017) 0.0)) (<= (+ ?x419 S_2) (- 5.0)) (<= (+ ?x5371 ?x5385 (* (- (/ 1.0 2.0)) S_4) S_2) 0.0) (or $x56 (<= (+ L_1 ?x432 A_2 ?x291 ?x412 S_1) 0.0)) (<= (+ ?x412 S_1) (- 5.0)) (or $x66 (<= (+ ?x1204 ?x1250 ?x1200 ?x1245 S_1 ?x1302) 0.0)) (or $x56 (<= (+ L_1 ?x432 ?x419 A_3 S_1 ?x308) 0.0)) (or $x18078 $x90689) (or $x56 (<= (+ L_1 ?x432 ?x291 A_3 ?x5379 ?x13887) 0.0) $x100380) (<= (+ (* (/ 1.0 3.0) S_5) ?x419 (* (/ 2.0 3.0) S_2)) 0.0) (or (<= (+ ?x405 S_0) (- 5.0)) $x102782) (or (<= (+ ?x6029 ?x405 (* (/ 2.0 3.0) S_0)) 0.0) $x102782) (or $x76 (<= 0.0 (+ L_4 ?x1200 ?x1245 ?x443 ?x1755 ?x1752)) $x98751) (or $x1018 $x18100 $x90689) (<= (+ (* (/ 1.0 4.0) S_5) ?x412 (* (/ 3.0 4.0) S_1)) 0.0) (<= (+ ?x412 (* (/ 3.0 2.0) S_1) ?x3466) 0.0) $x133554 (or $x66 (<= (+ ?x1204 ?x1250 ?x1200 ?x1245 S_2 ?x399) 0.0)) (or $x66 (<= (+ ?x1298 ?x1299 S_4 ?x1300 ?x1301 ?x399) 0.0)) (<= (+ (* (/ 1.0 2.0) S_5) ?x419 (* (/ 1.0 2.0) S_1)) 0.0) $x126403 $x135439 (or $x76 $x2827) (<= (+ ?x1690 ?x5591 ?x1302) 0.0) (<= (+ ?x419 ?x13887 ?x1302) 0.0) (or $x56 (<= (+ ?x1207 ?x1148 ?x419 ?x1168 ?x1127 S_1) 0.0)) (or $x66 (<= (+ ?x1298 ?x1299 S_4 ?x1300 ?x1301 ?x1332 L_0) 0.0)) (or $x96 (<= (+ ?x443 A_3 ?x308 L_5) (- 10.0))) (or $x76 (<= (+ ?x1168 ?x1127 ?x2151 S_3 ?x405 ?x2140) 0.0)) (<= (+ S_4 (* (- 3.0) S_3) ?x13887) 0.0) (<= (+ (* (- (/ 1.0 2.0)) S_4) ?x1332 (* (/ 3.0 2.0) S_1) L_0) 0.0) (or $x96 $x18046) (or $x76 $x21386) (or $x76 (<= (+ ?x1168 ?x1127 ?x2151 ?x1332 S_2 ?x2140 L_0) 0.0)) (or $x76 $x22166) (or $x96 (<= (+ ?x4209 ?x1755 ?x5436 ?x5564 ?x1752 ?x3788 ?x4664) 0.0)) (<= (+ ?x419 (* (- (/ 1.0 2.0)) A_0) ?x3461 (* (/ 1.0 2.0) L_0)) 0.0) (or $x66 (<= (+ ?x434 L_2 A_3 ?x405 S_0 ?x308) 0.0) $x102782) (or $x20512 $x90689 $x102782) $x125052 (<= (+ ?x419 S_1) (- 10.0)) (or $x76 $x2116) (or $x56 $x96 (<= 0.0 (+ ?x274 A_1 A_5 ?x2151 ?x2140 ?x342))) $x131747 (or $x76 (<= (+ ?x274 A_1 (* (- 1.0) A_3) L_3) (- 10.0))) (or $x66 (<= (+ ?x1286 ?x1287 ?x1288 ?x1289 ?x1332 S_3 L_0) 0.0)) (or $x66 (<= (+ ?x1204 ?x1250 ?x1200 ?x1245 S_3 ?x405) 0.0)) $x266181 (or $x76 (<= (+ S_5 ?x419 ?x1168 ?x1127 ?x2151 ?x2140) 0.0)) $x129870 (or $x56 (<= (+ L_1 ?x432 A_3 ?x5379 ?x13887 ?x308) 0.0)) $x277559 (or $x76 $x24126) (or $x66 (<= (+ ?x274 A_1 ?x434 L_2 ?x1332 S_1 L_0) 0.0)) (or $x76 (<= (+ ?x1168 ?x1127 ?x2151 S_2 ?x399 ?x2140) 0.0)) (<= (+ ?x4208 ?x4396 ?x399) 0.0) (or $x76 $x2139) (or $x76 $x2177) (or $x76 $x26085) (or $x76 (<= (+ S_5 ?x2127 ?x2129 ?x2157 ?x1302 ?x2158) 0.0)) (or $x76 (<= (+ ?x1168 ?x1127 ?x2151 S_1 ?x1302 ?x2140) 0.0)) $x134995 (or $x76 $x7739) $x278595 (or $x96 $x35974 (not $x106633)) (or $x76 (<= (+ L_1 ?x432 ?x1168 ?x1127 ?x2151 S_3 ?x2140) 0.0)) (or $x56 (<= (+ ?x5371 ?x5385 ?x4208 ?x14258 ?x3540 ?x15656) 0.0)) (or $x66 (<= (+ ?x1690 ?x434 L_2 A_5 ?x4396 ?x342) 0.0)) (or $x76 $x33786) (or $x66 (<= ?x29511 0.0)) $x124506 (or $x96 (<= (+ S_5 ?x419 ?x443 A_3 ?x308 L_5) 0.0)) (or $x96 $x38545) (or $x56 (<= (+ L_1 ?x432 A_2 ?x291 ?x405 S_0) 0.0)) (or $x76 $x2115) (or $x56 $x5402) (or $x96 (<= (+ ?x5577 ?x4209 ?x1755 ?x5379 ?x1752 ?x3788) 0.0)) (or $x76 $x7726) (or $x56 $x17029) (or $x76 $x33791) (or $x76 (<= (+ ?x1204 ?x1250 ?x2151 S_3 ?x1302 ?x2140) 0.0)) (or $x66 (<= (+ ?x419 ?x1288 ?x1289 ?x1755 S_0 ?x1752) 0.0) $x25666) $x278339 (or $x66 (<= (+ ?x1286 ?x1287 ?x1288 ?x1289 S_3 ?x399) 0.0)) (or $x76 (<= (+ ?x1204 ?x1250 ?x2151 ?x5436 ?x3540 ?x2140 ?x4664) 0.0)) (or $x76 $x13524) $x272618 (or $x76 (<= (+ ?x1204 ?x1250 ?x2151 ?x3540 ?x5409 ?x2140) 0.0)) (or $x96 (<= (+ ?x443 A_3 S_3 ?x405 ?x308 L_5) 0.0)) $x130095 $x137011 (or $x66 (<= (+ ?x440 L_4 ?x434 L_2 A_5 S_1 ?x342) 0.0)) (or $x56 $x5381) (or $x66 (<= (+ S_5 ?x1298 ?x1299 ?x1300 ?x1301 ?x405) 0.0)) (or $x76 (<= (+ S_5 ?x1204 ?x1250 ?x2151 ?x405 ?x2140) 0.0)) $x135152 (or $x66 (<= (+ ?x1298 ?x1299 ?x1300 ?x1301 S_3 ?x1302) 0.0)) $x126874 (or $x76 $x7702) (<= (+ ?x1332 ?x412 ?x13887 L_0) 0.0) (or $x96 (<= (+ L_1 ?x432 ?x443 A_3 S_3 ?x308 L_5) 0.0)) (or $x66 (<= (+ ?x1204 ?x1250 S_4 ?x1200 ?x1245 ?x412) 0.0)) (or $x66 (<= (+ S_5 ?x1286 ?x1287 ?x1288 ?x1289 ?x412) 0.0)) (or $x96 $x4381 $x105988) (or $x96 $x4381 $x54660) (or $x96 $x4381 $x35956) (or $x76 $x7697) (or $x56 (<= (+ L_1 ?x432 ?x4208 A_5 ?x13887 ?x342) 0.0)) $x139927 (or (<= (+ (* (/ 1.0 5.0) S_5) ?x405 (* (/ 4.0 5.0) S_0)) 0.0) $x102782) (or (<= (+ (* (- (/ 1.0 2.0)) S_3) (* (/ 1.0 2.0) S_0)) (- 5.0)) $x109668) $x128401 (or $x96 (<= (+ S_5 ?x4209 ?x1755 ?x1302 ?x1752 ?x3788) 0.0)) (or $x66 $x4930) $x125980 $x144375 $x146241 $x143824 (or $x96 (<= (+ ?x5577 ?x1711 ?x2123 ?x5436 ?x2141 ?x1713 ?x4664) 0.0)) (or $x96 $x29256) (<= (+ S_5 ?x440 L_4 (* (- (/ 1.0 2.0)) S_4) (* (/ 1.0 2.0) S_1)) 0.0) (or $x96 $x35956 $x101235) (or $x96 (<= (+ ?x5577 ?x1711 ?x2123 ?x5409 ?x2141 ?x1713) 0.0)) (or $x96 (<= (+ ?x4209 ?x1755 ?x5564 ?x5409 ?x1752 ?x3788) 0.0)) (or $x96 (<= (+ ?x443 A_3 ?x5436 ?x13887 ?x308 L_5 ?x4664) 0.0)) (or $x96 (<= (+ ?x443 A_3 S_1 ?x1302 ?x308 L_5) 0.0)) (or $x96 $x23181) (or (<= (+ S_4 (* (- 4.0) S_2) ?x1719) 0.0) $x102782) (or $x96 $x45669 $x101235) (<= (+ S_5 ?x440 L_4 ?x419 S_2) 0.0) (or $x66 (<= ?x3697 0.0)) (or $x56 $x15356) $x139981 (or $x102782 (<= (+ S_5 ?x440 L_4 ?x405 S_0) 0.0)) $x279037 $x127148 (<= (+ S_5 ?x440 L_4 ?x412 S_1) 0.0) $x133641 $x274272 (or $x96 (<= (+ ?x1298 ?x1299 (* 4.0 S_4) ?x1679 ?x5507 ?x1691) 0.0)) (or $x66 $x7076) (or $x96 (<= (+ ?x5861 ?x2529 ?x2100 ?x1711 ?x5258 ?x1713 ?x4677) 0.0) $x35974) (or $x96 $x4395 $x35974) (or $x96 (<= (+ S_5 ?x274 A_1 ?x443 ?x405 L_5) 0.0)) $x140473 (or $x66 (<= (+ S_5 ?x440 L_4 ?x274 A_1 ?x434 L_2) 0.0)) (or $x96 $x31567 $x35933) (or $x96 (<= (+ ?x1207 ?x1148 ?x443 A_3 ?x3540 ?x308 L_5) 0.0)) (or $x96 $x18096) (or $x96 $x18056) (or $x96 $x4211 $x35974) (or (<= (+ ?x1613 ?x2151 ?x5379 ?x5390 ?x2140 ?x1017) 0.0) $x28895 $x90689) (or $x96 $x101235 $x105988) (or $x96 $x583 $x63500 $x106076) (or $x96 $x583 $x35974 $x106076) (or $x96 $x35956 $x45137) $x127205 (or $x96 $x58197) (or $x66 (<= (+ S_5 ?x1204 ?x1250 ?x419 ?x1200 ?x1245) 0.0)) $x124314 (or $x96 $x64524) $x265225 (or $x56 (<= (+ ?x440 L_4 L_1 ?x432 A_5 S_0 ?x342) 0.0)) $x265578 (or $x96 $x46029 $x101235) (or $x96 (<= (+ S_4 ?x4375 ?x4377 ?x4378 ?x412 ?x4379) 0.0)) (or $x66 $x6494) (or $x96 $x4395 $x45669) $x272373 (or $x96 $x15509 $x35974) (or $x96 $x4211 $x105988) (or $x66 (<= (+ ?x1286 ?x1287 S_4 ?x1288 ?x1289 ?x405) 0.0)) (or $x56 $x32972 $x98751) $x129503 (or $x96 (<= (+ ?x1292 ?x1293 ?x1168 ?x1127 ?x1699 ?x1686 ?x1688) 0.0) $x105988) (or $x96 $x29486 $x105988) (or $x96 $x4381 $x35974) (or $x96 $x583 $x63473 $x106076) (or $x96 $x583 $x35933 $x106076) (or $x96 (<= (+ ?x1694 ?x1294 ?x1295 ?x4209 (* (- 3.0) S_2) ?x3788) 0.0)) (or $x56 (<= ?x5444 0.0)) (or $x96 $x1750 $x45669) (or $x96 $x31572 $x45669) (or $x66 (<= (+ S_5 ?x6438 ?x6157 ?x6772 ?x5939 ?x1302) 0.0)) (or $x56 (<= (+ ?x5386 ?x5352 ?x4208 ?x4502 ?x5390 ?x4526) 0.0)) (or $x96 $x35933 $x41536) (or $x56 $x96 $x35956 $x106076) (or $x56 (<= (+ ?x440 L_1 ?x432 A_5 ?x412 ?x13887) 0.0) $x98751) (or $x96 $x35933 $x101235) (or $x56 $x5708) (or $x96 $x49056) (or $x96 $x4395 $x35956) (or $x96 $x31572 $x35956) (or $x96 $x4381 $x63473) (or $x96 $x4381 $x63472) (or $x96 $x35974 $x41536) (or $x96 $x583 $x63472 $x106076) $x268297 $x270678 (or $x96 $x1724 $x45669) $x124945 $x268480 $x120959 $x132406 $x266387 $x122160 (or $x96 $x29523 $x105988) (or $x66 (<= ?x54810 0.0) $x102287) (or $x96 (<= (+ L_1 ?x432 S_4 A_2 ?x291 ?x443 L_5) 0.0)) (or $x56 $x50422) (or $x96 $x4211 $x45669) $x269360 (or $x96 $x35933 $x111296) $x269095 (or $x96 $x4395 $x105988) $x270584 (or $x96 $x35974 $x101235) (or $x96 $x531 $x35930 $x45137) (or $x96 $x35933 $x45137) (or $x96 $x35974 $x45137) (or $x96 $x531 $x583 $x35930 $x106076) $x269258 $x276621 (or $x96 $x31572 $x105988) (or $x96 (<= (+ ?x1701 ?x5418 ?x5419 ?x274 A_1 ?x419 ?x443 L_5) 0.0)) (or $x96 $x49028 $x63472) (or $x96 (<= (+ ?x14705 ?x14201 S_4 ?x14702 ?x405 ?x14127) 0.0)) (or $x96 $x49028 $x63473) $x121035 (or $x96 $x54647 $x101235) (or $x96 $x58765 $x101235) (or $x96 $x4283 $x58765) (or $x96 $x32520 $x63500) (or $x96 $x32520 $x35974) (or $x96 $x32520 $x63473) (or $x96 $x32520 $x35933) (or $x96 $x1724 $x105988) (or $x96 $x1724 $x54660) (or $x96 (<= (+ ?x5861 ?x1286 ?x1287 ?x4209 (* (- 4.0) S_3) ?x3788) 0.0)) (or $x96 $x1750 $x46029) (or $x66 $x43535 $x98751 $x102287) (or $x96 (<= (+ ?x1204 ?x1250 ?x1699 ?x5591 ?x5507 ?x1688) 0.0) $x35933) (or $x96 $x41536 $x63500) $x265766 (or $x96 $x1724 $x35974) (or $x96 $x1724 $x35933) (or $x56 (<= (+ ?x5418 ?x5419 ?x1207 ?x1148 ?x419 ?x1613 ?x1695 ?x1017) 0.0)) (or $x96 $x41536 $x63472) (or $x96 $x31567 $x35956) (or $x96 $x15509 $x63473) (or $x96 $x35974 $x49028) (or $x96 $x14135 $x63500) (or $x96 $x14135 $x35974) (or $x96 $x1750 $x35956) (or $x96 $x31567 $x51370) (or $x96 $x35956 $x45168) (or $x66 (<= ?x48276 0.0) $x102287) (or $x96 $x29802 $x35956) (or $x96 $x29802 $x58765) $x122145 (or $x96 (<= (+ ?x5861 ?x2529 ?x2100 ?x1711 ?x5507 ?x1713) 0.0) $x35933) (or $x96 $x49028 $x63500) (or $x96 $x63473 $x111296) (or $x96 $x4362 $x63473) (or $x96 (<= (+ ?x1204 ?x1250 ?x1699 ?x5258 ?x5591 ?x1688 ?x4677) 0.0) $x35974) (or $x96 $x31572 $x35974) (or $x96 $x4381 $x45669) (or $x96 $x1750 $x35974) (or $x96 $x51370 $x101235) $x271913 (or $x96 $x1715 $x58765) (or $x96 $x1715 $x51370) (or $x96 $x1715 $x105988) (or $x96 $x4362 $x58765) (or $x96 $x31564 $x51370) (or $x96 $x31564 $x105988) (or $x96 $x15509 $x63472) (or $x96 $x4381 $x46029) (or $x96 $x4362 $x46029) (or $x96 $x1724 $x46029) (or $x96 $x45168 $x46029) (or $x96 $x4395 $x46029) (or $x96 $x32520 $x63472) (or $x96 $x35933 $x49028) (or $x96 $x63500 $x111296) (or $x96 $x35974 $x111296) (or $x96 $x63472 $x111296) (or $x96 $x4362 $x105988) (or $x96 $x4362 $x54660) (or $x96 $x4362 $x51370) (or $x96 $x531 $x35930 $x101235) (or $x96 $x31564 $x35956) (or $x96 $x4381 $x63500) (or $x96 $x4381 $x54647) (or $x96 $x29802 $x105988) (or $x96 $x31567 $x54660) (or $x96 $x31567 $x45669) (or $x96 $x531 $x4381 $x35930) (or $x96 $x531 $x4362 $x35930) (or $x96 $x531 $x1724 $x35930) (or $x96 $x1724 $x35956) (or $x96 $x15509 $x63500) (or $x96 $x45137 $x45669) (or $x96 $x45137 $x105988) (or $x96 $x45137 $x54647) (or $x96 $x45137 $x58765) (or $x96 $x45137 $x51370) (or $x96 $x45137 $x54660) (or $x96 $x45137 $x46029) (or $x96 $x4362 $x35974) (or $x96 $x1715 $x35933) (or $x96 $x1715 $x35956) (or $x96 $x31564 $x35933) (or $x96 $x1724 $x54647) (or $x96 $x45168 $x105988) (or $x96 $x35974 $x45168) (or $x96 $x29802 $x35933) (or $x96 $x29802 $x51370) (or $x96 $x14135 $x63473) (or $x96 $x14135 $x35933) (or $x96 $x1750 $x105988) (or $x96 $x4283 $x51370) (or $x96 $x4362 $x45669) (or $x96 $x4283 $x105988) (or $x96 $x4362 $x35933) (or $x96 $x31567 $x105988) (or $x96 $x45168 $x45669) (or $x96 $x1724 $x51370) (or $x96 $x31567 $x35974) (or $x96 $x531 $x31567 $x35930) (or $x96 $x54660 $x101235) (or $x96 $x1724 $x58765) (or $x96 $x4283 $x35933) (or $x96 $x4211 $x46029) (or $x96 $x4362 $x54647) (or $x96 $x63500 $x101235) (or $x96 $x1724 $x63473) (or $x96 $x1724 $x63500) (or $x96 $x1724 $x63472) (or $x96 $x45137 $x63472) (or $x96 $x4362 $x63500) (or $x96 $x31567 $x63500) (or $x96 $x63473 $x101235) (or $x96 $x63472 $x101235) (or $x96 $x31567 $x63472) (or $x96 $x45137 $x63473) (or $x96 $x45137 $x63500) $x39 (<= (+ ?x1332 S_0 L_0) 0.0) (<= (+ S_5 ?x443 L_5) 0.0) (<= (+ L_1 ?x432 S_1) 0.0))))))))))))))))))))))))))))))))))))))))))))))))))))))))))))))))))))))))))))))))))))))))))))))))))))))))))))))))))))))))))))))))))))))))))))))))))))))))))))))))))))))))))))))))))))))))))))))))))))))))))))))))))))))))))))))))))))))))))))))))))))))))))))))))))))))))))))))))))))))))))))))))))))))))))))))))))))))))))))))))))))))))
(check-sat)
